Default LOCALE: LC_CTYPE=en_US.UTF-8;LC_NUMERIC=it_IT.UTF-8;LC_TIME=en_US.UTF-8;LC_COLLATE=en_US.UTF-8;LC_MONETARY=it_IT.UTF-8;LC_MESSAGES=en_US.UTF-8;LC_PAPER=it_IT.UTF-8;LC_NAME=it_IT.UTF-8;LC_ADDRESS=it_IT.UTF-8;LC_TELEPHONE=it_IT.UTF-8;LC_MEASUREMENT=it_IT.UTF-8;LC_IDENTIFICATION=it_IT.UTF-8

<<< setup, at 0s, took 1,54878e+09s


<<< generate, at 0s, took 0,00417995s

CPXPARAM_TimeLimit                               1
Tried aggregator 2 times.
MIP Presolve eliminated 9 rows and 9 columns.
Aggregator did 10 substitutions.
Reduced MIP has 111 rows, 181 columns, and 614 nonzeros.
Reduced MIP has 90 binaries, 91 generals, 0 SOSs, and 0 indicators.
Presolve time = 0,00 sec. (0,61 ticks)
Found incumbent of value 80,760379 after 0,00 sec. (1,23 ticks)
Probing fixed 7 vars, tightened 0 bounds.
Probing time = 0,00 sec. (0,36 ticks)
Cover probing fixed 0 vars, tightened 63 bounds.
Tried aggregator 1 time.
MIP Presolve eliminated 10 rows and 16 columns.
MIP Presolve modified 112 coefficients.
Reduced MIP has 101 rows, 165 columns, and 565 nonzeros.
Reduced MIP has 83 binaries, 82 generals, 0 SOSs, and 0 indicators.
Presolve time = 0,00 sec. (0,67 ticks)
Probing time = 0,00 sec. (0,30 ticks)
Clique table members: 19.
MIP emphasis: balance optimality and feasibility.
MIP search method: dynamic search.
Parallel mode: deterministic, using up to 4 threads.
Root relaxation solution time = 0,00 sec. (0,79 ticks)

        Nodes                                         Cuts/
   Node  Left     Objective  IInf  Best Integer    Best Bound    ItCnt     Gap

*     0+    0                           80,7604        0,0000           100,00%
      0     0       28,2873    27       80,7604       28,2873      118   64,97%
      0     0       31,9283    34       80,7604      Cuts: 44      143   60,47%
      0     0       32,9672    44       80,7604      Cuts: 29      187   59,18%
      0     0       33,3006    51       80,7604      Cuts: 16      218   58,77%
      0     0       33,3927    50       80,7604       Cuts: 9      232   58,65%
      0     0       33,4503    53       80,7604      Cuts: 12      247   58,58%
      0     0       33,4609    50       80,7604       Cuts: 6      251   58,57%
      0     0       33,4741    52       80,7604       Cuts: 2      255   58,55%
      0     0       33,4743    51       80,7604    MIRcuts: 2      256   58,55%
*     0+    0                           44,7929       33,4743            25,27%
*     0+    0                           40,4576       33,4743            17,26%
      0     0        cutoff             40,4576       40,4576      256    0,00%
Elapsed time = 0,08 sec. (35,69 ticks, tree = 0,01 MB, solutions = 3)

Cover cuts applied:  4
Implied bound cuts applied:  4
Flow cuts applied:  12
Mixed integer rounding cuts applied:  9
Zero-half cuts applied:  3
Lift and project cuts applied:  1
Gomory fractional cuts applied:  2

Root node processing (before b&c):
  Real time             =    0,08 sec. (35,71 ticks)
Parallel b&c, 4 threads:
  Real time             =    0,00 sec. (0,00 ticks)
  Sync time (average)   =    0,00 sec.
  Wait time (average)   =    0,00 sec.
                          ------------
Total (root+branch&cut) =    0,08 sec. (35,71 ticks)

<<< solve, at 0,27s, took 0,081867s


OBJECTIVE: 40.45755
01/29/2019 18:42:34 831
solving time ~= 83.659179688
Done
 [[0 7 0 0 0 0 0 0 0 0]
         [0 0 0 0 6 0 0 0 0 0]
         [8 0 0 0 0 0 0 0 0 0]
         [0 0 9 0 0 0 0 0 0 0]
         [0 0 0 0 0 0 5 0 0 0]
         [0 0 0 10 0 0 0 0 0 0]
         [0 0 0 0 0 0 0 4 0 0]
         [0 0 0 0 0 0 0 0 0 3]
         [0 0 0 0 0 1 0 0 0 0]
         [0 0 0 0 0 0 0 0 2 0]]

<<< post process, at 0,27s, took 0,00054121s

// solution (optimal) with objective 40.4575503797206
// Quality Incumbent solution:
// MILP objective                                 4,0457550380e+01
// MILP solution norm |x| (Total, Max)            6,50000e+01  1,00000e+01
// MILP solution error (Ax=b) (Total, Max)        0,00000e+00  0,00000e+00
// MILP x bound error (Total, Max)                0,00000e+00  0,00000e+00
// MILP x integrality error (Total, Max)          0,00000e+00  0,00000e+00
// MILP slack bound error (Total, Max)            0,00000e+00  0,00000e+00
// 

y = [[0
             1 0 0 0 0 0 0 0 0]
             [0 0 0 0 1 0 0 0 0 0]
             [1 0 0 0 0 0 0 0 0 0]
             [0 0 1 0 0 0 0 0 0 0]
             [0 0 0 0 0 0 1 0 0 0]
             [0 0 0 1 0 0 0 0 0 0]
             [0 0 0 0 0 0 0 1 0 0]
             [0 0 0 0 0 0 0 0 0 1]
             [0 0 0 0 0 1 0 0 0 0]
             [0 0 0 0 0 0 0 0 1 0]];
x = [[0 7 0 0 0 0 0 0 0 0]
             [0 0 0 0 6 0 0 0 0 0]
             [8 0 0 0 0 0 0 0 0 0]
             [0 0 9 0 0 0 0 0 0 0]
             [0 0 0 0 0 0 5 0 0 0]
             [0 0 0 10 0 0 0 0 0 0]
             [0 0 0 0 0 0 0 4 0 0]
             [0 0 0 0 0 0 0 0 0 3]
             [0 0 0 0 0 1 0 0 0 0]
             [0 0 0 0 0 0 0 0 2 0]];

<<< done, at 0,27s, took 0,000452995s

